Route #1: 35 3 19 33 48
Route #2: 41 27 31 32 37 12 8
Route #3: 6 7 28 26 43 11
Route #4: 4 14 42 13 29 39
Route #5: 18
Route #6: 17 10 34 38 2 16 40 36 5
Route #7: 25 46 22 24 30 47 45 23
Route #8: 21 44 20 1 9 49 15 50
Cost 1016
Time 0.067185
